45
750
523	1
518	1
509	2
505	2
502	1
483	1
474	1
464	1
460	1
446	1
436	1
415	1
403	1
394	1
390	1
386	1
383	1
376	1
375	1
367	1
361	1
353	1
343	1
338	1
323	2
313	1
311	2
291	1
281	1
275	1
272	1
270	1
266	1
229	1
222	1
213	1
205	1
183	1
181	1
172	1
167	1
164	1
163	1
157	2
151	1
